
  12    4
  10   10   10   10

   0   0   0   0   0   5 2 3 4 6 7 
   8  10  10  10  10   4 11 10 9 5 
   6  10  10  10  10   3 11 10 8 
   4  10  10  10  10   2 10 8 
   7  10  10  10  10   1 8 
   1  10  10  10  10   1 9 
   8  10  10  10  10   1 9 
   4  10  10  10  10   1 12
   3  10  10  10  10   1 12
   3  10  10  10  10   1 12
   9  10  10  10  10   1 12
   0   0   0   0   0   0 
